(declare-const a Int)
(declare-const b Int)
(declare-const c Int)
(declare-const d Int)
(declare-const aa Int)
(declare-const e Int)
(declare-const f Int)
(declare-const g Int)
(declare-const h Int)
(declare-const i Int)
(declare-const j Int)
(declare-const k Int)
(declare-const l Int)
(declare-const m Int)
(declare-const n Int)
(declare-const o Int)
(declare-const p Int)
(declare-fun q () Int)
(declare-fun r () Int)
(declare-fun s () Int)
(declare-fun t () Int)
(declare-fun u () Int)
(declare-fun v () Int)
(declare-fun w () Int)
(declare-fun x () Int)
(declare-fun y () Int)
(declare-fun z () Int)
(declare-fun ab () Int)
(declare-fun ac () Int)
(declare-fun ad () Int)
(declare-fun ae () Int)
(declare-fun af () Int)
(declare-fun ag () Int)
(assert (< c (+ t i u d o ag h l m w k v (* f e) (* ac s) (* j p))))
(assert (= r 0))
(assert (<= 0 (+ g b (* y n))))
(assert (< (+ m 1) 0 q (+ ab aa af z ae a)))
(assert (> (+ b ad t k c f x b w (* t ad)) 0))
(assert (< (+ b c (* i w)) h))
(assert (<= t 0))
(assert (< (+ b b i 1 m) 1))
(check-sat)
